(set-logic QF_S)
(declare-fun var_0xINPUT_25933 () String)
(assert (and (= (len var_0xINPUT_25933) 0) (= (len var_0xINPUT_25933) 0) (not (= var_0xINPUT_25933 "Example:")) (= (len var_0xINPUT_25933) 0) (not (= var_0xINPUT_25933 "4PH2ujcENG"))))
(check-sat var_0xINPUT_25933)